NAME : 10_3_3_1_(45).dat
COMMENT : Henke, Speranza, Wäscher, 2015
TYPE : MCVRP
DIMENSION : 11
EDGE_WEIGHT_TYPE : DISTANCE_MATRIX
CAPACITY : 1000
VEHICLES : 3
PRODUCT TYPES : 3
COMPARTMENTS : 3
NODE_COORD_SECTION
1 50 50
2 39.65 13.09
3 88.06 84.3
4 2.49 22.74
5 21.05 2.38
6 90.25 21.98
7 85.56 81.83
8 39.69 45.46
9 2.12 48.73
10 85.88 93.24
11 40 49.06
DEMAND_SECTION
1 0 0 0
2 0 510 0
3 107 0 0
4 336 0 0
5 0 0 124
6 54 0 0
7 0 0 66
8 314 0 0
9 0 0 47
10 40 0 0
11 0 0 103
DEPOT_SECTION
1
EOF